
Gurobi 7.5.2 (mac64) logging started Wed Dec  6 09:37:56 2017

Academic license - for non-commercial use only

Gurobi Optimizer version 7.5.2 build v7.5.2rc1 (mac64)
Copyright (c) 2017, Gurobi Optimization, Inc.

Read LP format model from file contproblem.lp
Reading time = 0.00 seconds
: 111 rows, 118 columns, 888 nonzeros
Optimize a model with 111 rows, 118 columns and 888 nonzeros
Model has 111 quadratic objective terms
Coefficient statistics:
  Matrix range     [1e+00, 2e+07]
  Objective range  [0e+00, 0e+00]
  QObjective range [2e+00, 2e+00]
  Bounds range     [0e+00, 0e+00]
  RHS range        [1e+02, 2e+03]
Presolve removed 0 rows and 1 columns
Presolve time: 0.00s
Presolved: 111 rows, 117 columns, 777 nonzeros
Presolved model has 111 quadratic objective terms
Ordering time: 0.00s

Barrier statistics:
 Dense cols : 6
 AA' NZ     : 6.660e+02
 Factor NZ  : 7.980e+02
 Factor Ops : 5.530e+03 (less than 1 second per iteration)
 Threads    : 1

                  Objective                Residual
Iter       Primal          Dual         Primal    Dual     Compl     Time
   0   2.77529121e+07 -2.77529121e+07  5.66e+03 0.00e+00  9.97e+05     0s
   1   7.67146761e+06 -7.66231839e+06  1.72e+01 0.00e+00  1.32e+05     0s
   2   1.67533598e+06 -1.67124879e+06  1.29e+00 0.00e+00  2.87e+04     0s
   3   3.98842730e+05 -4.07804211e+05  6.31e-03 0.00e+00  6.90e+03     0s
   4   9.90851795e+04 -9.09431563e+04  6.31e-09 3.85e-08  1.62e+03     0s
   5   2.26989565e+04 -1.55260120e+04  6.66e-15 1.86e-09  3.27e+02     0s
   6   8.16141918e+03  8.21109340e+02  4.44e-16 4.51e-10  6.27e+01     0s
   7   6.11787743e+03  4.12893080e+03  4.44e-16 4.10e-09  1.70e+01     0s
   8   6.27785138e+03  4.90813086e+03  2.22e-16 1.57e-09  1.17e+01     0s
   9   5.99706853e+03  5.77259076e+03  4.44e-16 1.40e-10  1.92e+00     0s
  10   5.95716781e+03  5.94883320e+03  4.44e-16 8.15e-10  7.12e-02     0s
  11   5.95667545e+03  5.95666656e+03  5.55e-17 3.57e-10  7.60e-05     0s
  12   5.95667489e+03  5.95667488e+03  1.11e-16 1.45e-09  7.60e-08     0s
  13   5.95667489e+03  5.95667489e+03  1.11e-16 3.42e-10  7.60e-11     0s

Barrier solved model in 13 iterations and 0.01 seconds
Optimal objective 5.95667489e+03


Wrote result file 'max.sol'


Gurobi 7.5.2 (mac64) logging started Wed Dec  6 09:40:13 2017

Academic license - for non-commercial use only

Gurobi Optimizer version 7.5.2 build v7.5.2rc1 (mac64)
Copyright (c) 2017, Gurobi Optimization, Inc.

Read LP format model from file contproblem.lp
Reading time = 0.00 seconds
: 111 rows, 117 columns, 777 nonzeros
Optimize a model with 111 rows, 117 columns and 777 nonzeros
Model has 111 quadratic objective terms
Coefficient statistics:
  Matrix range     [1e+00, 2e+07]
  Objective range  [0e+00, 0e+00]
  QObjective range [2e+00, 2e+00]
  Bounds range     [0e+00, 0e+00]
  RHS range        [1e+02, 2e+03]
Presolve removed 0 rows and 1 columns
Presolve time: 0.01s
Presolved: 111 rows, 116 columns, 666 nonzeros
Presolved model has 111 quadratic objective terms
Ordering time: 0.00s

Barrier statistics:
 Dense cols : 5
 AA' NZ     : 5.550e+02
 Factor NZ  : 6.810e+02
 Factor Ops : 4.051e+03 (less than 1 second per iteration)
 Threads    : 1

                  Objective                Residual
Iter       Primal          Dual         Primal    Dual     Compl     Time
   0   2.79762526e+07 -2.79762526e+07  4.88e+03 0.00e+00  9.49e+05     0s
   1   8.05135283e+06 -7.24190906e+06  1.27e+02 0.00e+00  1.39e+05     0s
   2   7.21242496e+06 -4.18514044e+06  9.19e+01 0.00e+00  1.21e+05     0s
   3   7.54302977e+06  3.93120021e+06  5.56e+01 3.55e+00  8.68e+04     0s
   4   1.20735298e+07  1.07682863e+07  1.74e+01 0.00e+00  4.58e+04     0s
   5   1.40695291e+07  1.32944735e+07  2.55e+00 0.00e+00  1.51e+04     0s
   6   1.41754355e+07  1.36131678e+07  2.09e+00 0.00e+00  1.23e+04     0s
   7   1.47917741e+07  1.42019414e+07  5.02e-01 0.00e+00  7.25e+03     0s
   8   1.48589367e+07  1.45586982e+07  1.91e-01 0.00e+00  3.47e+03     0s
   9   1.48611794e+07  1.46772309e+07  1.88e-01 0.00e+00  3.46e+03     0s
  10   1.48828656e+07  1.68761142e+07  1.87e-01 0.00e+00  3.46e+03     0s
  11   6.93975926e+08 -6.93975926e+08  2.44e+04 0.00e+00  2.47e+07     0s
  12   9.82325895e+05  2.06638929e+05  7.34e+02 5.78e+01  1.88e+04     0s
  13   5.82480794e+05  4.56236386e+05  1.05e+02 6.10e+00  2.11e+03     0s
  14   7.71690902e+05  1.04033004e+06  1.71e+02 1.42e+01  1.15e+04     0s
  15   1.27549165e+06  2.10160962e+06  1.13e+02 0.00e+00  1.65e+04     0s
  16   3.11161483e+06  3.65752848e+06  9.32e+01 4.60e-06  4.59e+04     0s
  17   1.08394480e+07  8.42244106e+06  2.70e+01 6.63e-06  6.57e+04     0s
  18   1.15009628e+07  1.04634307e+07  1.94e+01 8.64e-14  6.56e+04     0s
  19   1.37948985e+07  1.30427745e+07  3.40e+00 9.41e-06  1.83e+04     0s
  20   1.38979960e+07  1.31668949e+07  3.15e+00 1.03e-05  1.77e+04     0s
  21   1.45877915e+07  1.42215769e+07  8.84e-01 7.95e-06  7.02e+03     0s
  22   1.48165005e+07  1.47215227e+07  1.92e-01 2.06e-06  1.70e+03     0s
  23   1.48212608e+07  1.50918239e+07  1.88e-01 1.86e-06  1.73e+03     0s
  24   1.48862597e+07  1.76472831e+07  1.88e-01 2.81e-06  2.20e+03     0s
  25   1.50593572e+07  1.99440087e+07  1.82e-01 5.64e-04  2.20e+03     0s
  26   1.52880144e+07  2.12638837e+07  1.75e-01 3.68e-12  2.24e+03     0s
  27   1.53123243e+07  2.20460941e+07  1.75e-01 9.12e-08  2.63e+03     0s
  28   1.61282879e+07  2.08191228e+07  1.58e-01 1.07e-03  5.08e+03     0s
  29   1.63554426e+07  2.09937164e+07  1.52e-01 1.38e-03  5.35e+03     0s
  30   1.69397277e+07  2.24198073e+07  1.40e-01 9.74e-04  4.76e+03     0s
  31   2.50932074e+07  2.51063442e+07  1.61e-02 4.83e-12  1.01e+04     0s
  32   2.63862417e+07  2.63330536e+07  1.69e-08 1.60e-03  4.58e+02     0s
  33   2.63827349e+07  2.63826466e+07  1.67e-14 8.72e-06  7.58e-01     0s
  34   2.63826987e+07  2.63826982e+07  3.09e-16 1.64e-09  4.91e-03     0s
  35   2.63826982e+07  2.63826982e+07  3.09e-16 2.45e-09  4.93e-06     0s
  36   2.63826982e+07  2.63826982e+07  3.09e-16 4.15e-07  4.94e-09     0s
  37   2.63826982e+07  2.63826982e+07  6.18e-16 2.96e-09  4.94e-12     0s

Barrier solved model in 37 iterations and 0.02 seconds
Optimal objective 2.63826982e+07


Wrote result file 'max.sol'


Gurobi 7.5.2 (mac64) logging started Wed Dec  6 09:43:05 2017

Academic license - for non-commercial use only

Gurobi Optimizer version 7.5.2 build v7.5.2rc1 (mac64)
Copyright (c) 2017, Gurobi Optimization, Inc.

Read LP format model from file contproblem.lp
Reading time = 0.00 seconds
: 111 rows, 118 columns, 888 nonzeros
Optimize a model with 111 rows, 118 columns and 888 nonzeros
Model has 111 quadratic objective terms
Coefficient statistics:
  Matrix range     [1e+00, 2e+07]
  Objective range  [0e+00, 0e+00]
  QObjective range [2e+00, 2e+00]
  Bounds range     [0e+00, 0e+00]
  RHS range        [1e+02, 2e+03]
Presolve removed 0 rows and 1 columns
Presolve time: 0.01s
Presolved: 111 rows, 117 columns, 777 nonzeros
Presolved model has 111 quadratic objective terms
Ordering time: 0.00s

Barrier statistics:
 Dense cols : 6
 AA' NZ     : 6.660e+02
 Factor NZ  : 7.980e+02
 Factor Ops : 5.530e+03 (less than 1 second per iteration)
 Threads    : 1

                  Objective                Residual
Iter       Primal          Dual         Primal    Dual     Compl     Time
   0   2.77529121e+07 -2.77529121e+07  5.66e+03 0.00e+00  9.97e+05     0s
   1   7.67146761e+06 -7.66231839e+06  1.72e+01 0.00e+00  1.32e+05     0s
   2   1.67533598e+06 -1.67124879e+06  1.29e+00 0.00e+00  2.87e+04     0s
   3   3.98842730e+05 -4.07804211e+05  6.31e-03 0.00e+00  6.90e+03     0s
   4   9.90851795e+04 -9.09431563e+04  6.31e-09 3.85e-08  1.62e+03     0s
   5   2.26989565e+04 -1.55260120e+04  6.66e-15 1.86e-09  3.27e+02     0s
   6   8.16141918e+03  8.21109340e+02  4.44e-16 4.51e-10  6.27e+01     0s
   7   6.11787743e+03  4.12893080e+03  4.44e-16 4.10e-09  1.70e+01     0s
   8   6.27785138e+03  4.90813086e+03  2.22e-16 1.57e-09  1.17e+01     0s
   9   5.99706853e+03  5.77259076e+03  4.44e-16 1.40e-10  1.92e+00     0s
  10   5.95716781e+03  5.94883320e+03  4.44e-16 8.15e-10  7.12e-02     0s
  11   5.95667545e+03  5.95666656e+03  5.55e-17 3.57e-10  7.60e-05     0s
  12   5.95667489e+03  5.95667488e+03  1.11e-16 1.45e-09  7.60e-08     0s
  13   5.95667489e+03  5.95667489e+03  1.11e-16 3.42e-10  7.60e-11     0s

Barrier solved model in 13 iterations and 0.02 seconds
Optimal objective 5.95667489e+03


Wrote result file 'max.sol'


Gurobi 7.5.2 (mac64) logging started Wed Dec  6 09:49:05 2017

Academic license - for non-commercial use only

Gurobi Optimizer version 7.5.2 build v7.5.2rc1 (mac64)
Copyright (c) 2017, Gurobi Optimization, Inc.

Read LP format model from file contproblem.lp
Reading time = 0.00 seconds
: 111 rows, 118 columns, 888 nonzeros
Optimize a model with 111 rows, 118 columns and 888 nonzeros
Model has 111 quadratic objective terms
Coefficient statistics:
  Matrix range     [1e+00, 2e+07]
  Objective range  [0e+00, 0e+00]
  QObjective range [2e+00, 2e+00]
  Bounds range     [0e+00, 0e+00]
  RHS range        [1e+02, 2e+03]
Presolve removed 0 rows and 1 columns
Presolve time: 0.00s
Presolved: 111 rows, 117 columns, 777 nonzeros
Presolved model has 111 quadratic objective terms
Ordering time: 0.00s

Barrier statistics:
 Dense cols : 6
 AA' NZ     : 6.660e+02
 Factor NZ  : 7.980e+02
 Factor Ops : 5.530e+03 (less than 1 second per iteration)
 Threads    : 1

                  Objective                Residual
Iter       Primal          Dual         Primal    Dual     Compl     Time
   0   2.77529121e+07 -2.77529121e+07  5.66e+03 0.00e+00  9.97e+05     0s
   1   7.67146761e+06 -7.66231839e+06  1.72e+01 0.00e+00  1.32e+05     0s
   2   1.67533598e+06 -1.67124879e+06  1.29e+00 0.00e+00  2.87e+04     0s
   3   3.98842730e+05 -4.07804211e+05  6.31e-03 0.00e+00  6.90e+03     0s
   4   9.90851795e+04 -9.09431563e+04  6.31e-09 3.85e-08  1.62e+03     0s
   5   2.26989565e+04 -1.55260120e+04  6.66e-15 1.86e-09  3.27e+02     0s
   6   8.16141918e+03  8.21109340e+02  4.44e-16 4.51e-10  6.27e+01     0s
   7   6.11787743e+03  4.12893080e+03  4.44e-16 4.10e-09  1.70e+01     0s
   8   6.27785138e+03  4.90813086e+03  2.22e-16 1.57e-09  1.17e+01     0s
   9   5.99706853e+03  5.77259076e+03  4.44e-16 1.40e-10  1.92e+00     0s
  10   5.95716781e+03  5.94883320e+03  4.44e-16 8.15e-10  7.12e-02     0s
  11   5.95667545e+03  5.95666656e+03  5.55e-17 3.57e-10  7.60e-05     0s
  12   5.95667489e+03  5.95667488e+03  1.11e-16 1.45e-09  7.60e-08     0s
  13   5.95667489e+03  5.95667489e+03  1.11e-16 3.42e-10  7.60e-11     0s

Barrier solved model in 13 iterations and 0.01 seconds
Optimal objective 5.95667489e+03


Wrote result file 'max.sol'


Gurobi 7.5.2 (mac64) logging started Wed Dec  6 09:51:02 2017

Academic license - for non-commercial use only

Gurobi Optimizer version 7.5.2 build v7.5.2rc1 (mac64)
Copyright (c) 2017, Gurobi Optimization, Inc.

Read LP format model from file contproblem.lp
Reading time = 0.00 seconds
: 111 rows, 117 columns, 777 nonzeros
Optimize a model with 111 rows, 117 columns and 777 nonzeros
Model has 111 quadratic objective terms
Coefficient statistics:
  Matrix range     [1e+00, 2e+07]
  Objective range  [0e+00, 0e+00]
  QObjective range [2e+00, 2e+00]
  Bounds range     [0e+00, 0e+00]
  RHS range        [1e+02, 2e+03]
Presolve removed 0 rows and 1 columns
Presolve time: 0.00s
Presolved: 111 rows, 116 columns, 666 nonzeros
Presolved model has 111 quadratic objective terms
Ordering time: 0.00s

Barrier statistics:
 Dense cols : 5
 AA' NZ     : 5.550e+02
 Factor NZ  : 6.810e+02
 Factor Ops : 4.051e+03 (less than 1 second per iteration)
 Threads    : 1

                  Objective                Residual
Iter       Primal          Dual         Primal    Dual     Compl     Time
   0   2.79762526e+07 -2.79762526e+07  4.88e+03 0.00e+00  9.49e+05     0s
   1   8.05135283e+06 -7.24190906e+06  1.27e+02 0.00e+00  1.39e+05     0s
   2   7.21242496e+06 -4.18514044e+06  9.19e+01 0.00e+00  1.21e+05     0s
   3   7.54302977e+06  3.93120021e+06  5.56e+01 3.55e+00  8.68e+04     0s
   4   1.20735298e+07  1.07682863e+07  1.74e+01 0.00e+00  4.58e+04     0s
   5   1.40695291e+07  1.32944735e+07  2.55e+00 0.00e+00  1.51e+04     0s
   6   1.41754355e+07  1.36131678e+07  2.09e+00 0.00e+00  1.23e+04     0s
   7   1.47917741e+07  1.42019414e+07  5.02e-01 0.00e+00  7.25e+03     0s
   8   1.48589367e+07  1.45586982e+07  1.91e-01 0.00e+00  3.47e+03     0s
   9   1.48611794e+07  1.46772309e+07  1.88e-01 0.00e+00  3.46e+03     0s
  10   1.48828656e+07  1.68761142e+07  1.87e-01 0.00e+00  3.46e+03     0s
  11   6.93975926e+08 -6.93975926e+08  2.44e+04 0.00e+00  2.47e+07     0s
  12   9.82325895e+05  2.06638929e+05  7.34e+02 5.78e+01  1.88e+04     0s
  13   5.82480794e+05  4.56236386e+05  1.05e+02 6.10e+00  2.11e+03     0s
  14   7.71690902e+05  1.04033004e+06  1.71e+02 1.42e+01  1.15e+04     0s
  15   1.27549165e+06  2.10160962e+06  1.13e+02 0.00e+00  1.65e+04     0s
  16   3.11161483e+06  3.65752848e+06  9.32e+01 4.60e-06  4.59e+04     0s
  17   1.08394480e+07  8.42244106e+06  2.70e+01 6.63e-06  6.57e+04     0s
  18   1.15009628e+07  1.04634307e+07  1.94e+01 8.64e-14  6.56e+04     0s
  19   1.37948985e+07  1.30427745e+07  3.40e+00 9.41e-06  1.83e+04     0s
  20   1.38979960e+07  1.31668949e+07  3.15e+00 1.03e-05  1.77e+04     0s
  21   1.45877915e+07  1.42215769e+07  8.84e-01 7.95e-06  7.02e+03     0s
  22   1.48165005e+07  1.47215227e+07  1.92e-01 2.06e-06  1.70e+03     0s
  23   1.48212608e+07  1.50918239e+07  1.88e-01 1.86e-06  1.73e+03     0s
  24   1.48862597e+07  1.76472831e+07  1.88e-01 2.81e-06  2.20e+03     0s
  25   1.50593572e+07  1.99440087e+07  1.82e-01 5.64e-04  2.20e+03     0s
  26   1.52880144e+07  2.12638837e+07  1.75e-01 3.68e-12  2.24e+03     0s
  27   1.53123243e+07  2.20460941e+07  1.75e-01 9.12e-08  2.63e+03     0s
  28   1.61282879e+07  2.08191228e+07  1.58e-01 1.07e-03  5.08e+03     0s
  29   1.63554426e+07  2.09937164e+07  1.52e-01 1.38e-03  5.35e+03     0s
  30   1.69397277e+07  2.24198073e+07  1.40e-01 9.74e-04  4.76e+03     0s
  31   2.50932074e+07  2.51063442e+07  1.61e-02 4.83e-12  1.01e+04     0s
  32   2.63862417e+07  2.63330536e+07  1.69e-08 1.60e-03  4.58e+02     0s
  33   2.63827349e+07  2.63826466e+07  1.67e-14 8.72e-06  7.58e-01     0s
  34   2.63826987e+07  2.63826982e+07  3.09e-16 1.64e-09  4.91e-03     0s
  35   2.63826982e+07  2.63826982e+07  3.09e-16 2.45e-09  4.93e-06     0s
  36   2.63826982e+07  2.63826982e+07  3.09e-16 4.15e-07  4.94e-09     0s
  37   2.63826982e+07  2.63826982e+07  6.18e-16 2.96e-09  4.94e-12     0s

Barrier solved model in 37 iterations and 0.01 seconds
Optimal objective 2.63826982e+07


Wrote result file 'max.sol'

